% seed = 1671843

mint = 44;
% maxt = 124;

nActs = 22;
dur = [0,2,7,9,1,2,6,8,8,8,5,7,9,3,8,8,3,10,7,3,10,0];

nSkills = 4;
sreq = [| 0,0,0,0,
	| 1,1,1,1,
	| 2,0,0,3,
	| 0,3,0,3,
	| 2,0,2,3,
	| 2,1,1,2,
	| 1,1,2,3,
	| 2,0,3,0,
	| 2,2,1,0,
	| 2,3,3,1,
	| 2,2,1,1,
	| 2,2,0,0,
	| 2,0,3,0,
	| 0,0,3,3,
	| 2,3,1,1,
	| 2,2,1,3,
	| 2,3,2,1,
	| 0,3,0,2,
	| 0,3,1,3,
	| 2,1,1,1,
	| 2,0,0,3,
	| 0,0,0,0, |];

nResources = 10;
mastery = [| false,true,false,true,
	| false,false,true,false,
	| false,true,false,true,
	| true,false,false,false,
	| false,true,true,true,
	| false,true,false,true,
	| false,true,true,false,
	| true,false,true,false,
	| false,false,false,true,
	| false,true,true,false, |];

nPrecs = 31;
pred = [1,1,1,2,2,2,3,3,4,4,5,6,7,7,8,9,9,10,11,11,12,13,14,15,16,16,17,18,19,20,21];
succ = [2,3,4,5,7,8,9,12,21,6,21,10,9,11,13,20,16,11,17,14,15,18,15,19,17,18,19,21,22,22,22];

nUnrels = 111;
unpred = [2,2,2,2,2,3,3,3,3,3,3,3,3,3,4,4,4,4,4,4,4,4,4,5,5,5,5,5,5,5,5,5,5,5,5,5,5,5,6,6,6,6,6,6,6,6,6,7,7,7,7,8,8,8,8,8,8,8,8,8,8,9,9,9,9,9,9,10,10,10,10,10,10,11,11,11,11,11,11,12,12,12,12,12,12,12,13,13,13,13,13,13,14,14,14,14,14,15,15,15,15,15,16,17,17,17,18,18,19,19,20];
unsucc = [3,4,6,10,12,4,5,6,7,8,10,11,13,14,5,7,8,9,12,13,16,18,20,6,7,8,9,10,11,12,13,14,15,16,17,18,19,20,7,8,9,12,13,16,18,20,21,8,10,12,13,9,10,11,12,14,15,16,17,19,20,10,11,12,13,14,15,12,13,16,18,20,21,12,13,16,18,20,21,13,14,16,17,18,20,21,14,15,16,17,19,20,16,17,18,20,21,16,17,18,20,21,20,18,20,21,19,20,20,21,21];

USEFUL_RES = [{},
	{1,2,3,4,5,6,7,8,9,10},
	{1,3,4,5,6,8,9},
	{1,3,5,6,7,9,10},
	{1,2,3,4,5,6,7,8,9,10},
	{1,2,3,4,5,6,7,8,9,10},
	{1,2,3,4,5,6,7,8,9,10},
	{2,4,5,7,8,10},
	{1,2,3,4,5,6,7,8,10},
	{1,2,3,4,5,6,7,8,9,10},
	{1,2,3,4,5,6,7,8,9,10},
	{1,3,4,5,6,7,8,10},
	{2,4,5,7,8,10},
	{1,2,3,5,6,7,8,9,10},
	{1,2,3,4,5,6,7,8,9,10},
	{1,2,3,4,5,6,7,8,9,10},
	{1,2,3,4,5,6,7,8,9,10},
	{1,3,5,6,7,9,10},
	{1,2,3,5,6,7,8,9,10},
	{1,2,3,4,5,6,7,8,9,10},
	{1,3,4,5,6,8,9},
	{}];

POTENTIAL_ACT = [{2,3,4,5,6,7,9,10,11,12,14,15,16,17,18,19,20,21},
	{2,5,6,7,8,9,10,11,13,14,15,16,17,19,20},
	{2,3,4,5,6,7,9,10,11,12,14,15,16,17,18,19,20,21},
	{2,3,5,6,7,8,9,10,11,12,13,15,16,17,20,21},
	{2,3,4,5,6,7,8,9,10,11,12,13,14,15,16,17,18,19,20,21},
	{2,3,4,5,6,7,9,10,11,12,14,15,16,17,18,19,20,21},
	{2,4,5,6,7,8,9,10,11,12,13,14,15,16,17,18,19,20},
	{2,3,5,6,7,8,9,10,11,12,13,14,15,16,17,19,20,21},
	{2,3,4,5,6,7,10,11,14,15,16,17,18,19,20,21},
	{2,4,5,6,7,8,9,10,11,12,13,14,15,16,17,18,19,20}];
